decision_x6=[0,4];
decision_x7=[0,4];
decision_x8=[0,4];
decision_x9=[0,4];
decision_x10=[0,4];
decision_x1=[0,4];
decision_x2=[0,4];
decision_x3=[0,4];
decision_x4=[0,4];
decision_x5=[0,4];
random_y1=[0,4];
random_y2=[0,4];
constraint_x2_x1=[
0,1,7.7|
0,2,7.4|
0,3,1.3|
0,4,6.5|
1,0,5.3|
1,2,9.5|
1,3,2.9|
1,4,0.96|
2,0,4.6|
2,1,5.4|
2,3,5.5|
2,4,4.8|
3,0,0.81|
3,1,0.32|
3,2,1.6|
3,4,5.6|
4,0,6.7|
4,1,10|
4,2,3.8|
4,3,5.5|
];
constraint_x3_x2=[
0,1,8.8|
0,2,0.59|
0,3,7.1|
0,4,1.5|
1,0,3.7|
1,2,3.9|
1,3,1.5|
1,4,4.5|
2,0,0.99|
2,1,6.4|
2,3,9.8|
2,4,9.9|
3,0,1.1|
3,1,8.8|
3,2,3.9|
3,4,0.3|
4,0,4.5|
4,1,9.5|
4,2,3|
4,3,9.5|
];
constraint_x4_x1=[
0,1,5.2|
0,2,8.7|
0,3,8.9|
0,4,9|
1,0,5.2|
1,2,4.3|
1,3,7.4|
1,4,8.4|
2,0,3.4|
2,1,9.4|
2,3,3.6|
2,4,5.5|
3,0,2.4|
3,1,8.6|
3,2,0.44|
3,4,6.4|
4,0,6.3|
4,1,8.8|
4,2,3.4|
4,3,8.2|
];
constraint_x5_x2=[
0,1,6.1|
0,2,3.8|
0,3,5.2|
0,4,0.36|
1,0,0.97|
1,2,5.3|
1,3,4.5|
1,4,0.31|
2,0,2.3|
2,1,8.5|
2,3,9.6|
2,4,7.9|
3,0,3.5|
3,1,3.7|
3,2,1.2|
3,4,3.8|
4,0,9.4|
4,1,1.7|
4,2,6.9|
4,3,6.9|
];
constraint_x5_x4=[
0,1,6.5|
0,2,4.9|
0,3,8.9|
0,4,3.5|
1,0,1.5|
1,2,6.1|
1,3,2.4|
1,4,9.3|
2,0,9|
2,1,8.9|
2,3,3.1|
2,4,6.5|
3,0,8.6|
3,1,2.9|
3,2,2.6|
3,4,9.7|
4,0,2.4|
4,1,7.9|
4,2,3.4|
4,3,1.9|
];
constraint_x6_x3=[
0,1,0.59|
0,2,9.5|
0,3,0.93|
0,4,5.9|
1,0,2.3|
1,2,9.4|
1,3,3.5|
1,4,0.18|
2,0,1.9|
2,1,2.6|
2,3,5.8|
2,4,1.3|
3,0,7.7|
3,1,0.93|
3,2,3.5|
3,4,8.2|
4,0,7.3|
4,1,5|
4,2,2.2|
4,3,8.4|
];
constraint_x6_x4=[
0,1,3.9|
0,2,8|
0,3,1.9|
0,4,7.2|
1,0,7.9|
1,2,3.5|
1,3,2.8|
1,4,9.4|
2,0,8.4|
2,1,8.1|
2,3,4.7|
2,4,9.5|
3,0,5.7|
3,1,9.6|
3,2,3|
3,4,3.7|
4,0,5.6|
4,1,9.3|
4,2,7.7|
4,3,6.5|
];
constraint_x7_x1=[
0,1,4.6|
0,2,7.3|
0,3,0.23|
0,4,5|
1,0,8.6|
1,2,8|
1,3,8.9|
1,4,8.7|
2,0,2.1|
2,1,9.6|
2,3,7.1|
2,4,2.1|
3,0,0.63|
3,1,1.5|
3,2,7|
3,4,2.4|
4,0,4.5|
4,1,5.4|
4,2,5|
4,3,8.9|
];
constraint_x7_x2=[
0,1,9.8|
0,2,2.6|
0,3,1.9|
0,4,1.4|
1,0,8.1|
1,2,2.3|
1,3,6|
1,4,9.8|
2,0,2.6|
2,1,6.4|
2,3,3.2|
2,4,0.72|
3,0,6.2|
3,1,8.1|
3,2,8.8|
3,4,0.47|
4,0,1.6|
4,1,7.1|
4,2,1.9|
4,3,0.14|
];
constraint_x7_x4=[
0,1,6.5|
0,2,8.1|
0,3,9.3|
0,4,2.1|
1,0,4.8|
1,2,0.00084|
1,3,9.4|
1,4,0.45|
2,0,3|
2,1,9.4|
2,3,5.9|
2,4,4|
3,0,9.4|
3,1,1.9|
3,2,2.6|
3,4,3.5|
4,0,9.1|
4,1,9.2|
4,2,1.4|
4,3,6.7|
];
constraint_x7_x5=[
0,1,2.3|
0,2,7.4|
0,3,4.1|
0,4,9.2|
1,0,2.4|
1,2,3.5|
1,3,2|
1,4,4.3|
2,0,9.3|
2,1,2.2|
2,3,9.9|
2,4,7.7|
3,0,3.5|
3,1,2.7|
3,2,3.5|
3,4,0.25|
4,0,6.4|
4,1,2.6|
4,2,4.3|
4,3,7.4|
];
constraint_x7_x6=[
0,1,1.2|
0,2,7.2|
0,3,6.9|
0,4,4.7|
1,0,7.1|
1,2,1.4|
1,3,7|
1,4,1.2|
2,0,7.6|
2,1,1.5|
2,3,9.4|
2,4,1.1|
3,0,5.2|
3,1,1.3|
3,2,4.3|
3,4,6.7|
4,0,7.8|
4,1,1.8|
4,2,0.22|
4,3,9.1|
];
constraint_x8_x6=[
0,1,0.59|
0,2,1.1|
0,3,2.1|
0,4,3.9|
1,0,8.5|
1,2,1.2|
1,3,8.5|
1,4,0.25|
2,0,8.7|
2,1,0.018|
2,3,7.5|
2,4,9.4|
3,0,1.4|
3,1,4.5|
3,2,8.9|
3,4,4.6|
4,0,2.7|
4,1,8.4|
4,2,7|
4,3,9.5|
];
constraint_x9_x1=[
0,1,9|
0,2,9.3|
0,3,9.3|
0,4,5.6|
1,0,9.2|
1,2,4.2|
1,3,4.3|
1,4,3.2|
2,0,2.8|
2,1,8.9|
2,3,6.8|
2,4,6.3|
3,0,0.18|
3,1,8.5|
3,2,7.1|
3,4,5.6|
4,0,2.1|
4,1,3.2|
4,2,3|
4,3,2.9|
];
constraint_x9_x2=[
0,1,0.64|
0,2,5|
0,3,3.1|
0,4,4.2|
1,0,5.3|
1,2,8.7|
1,3,1.1|
1,4,9.5|
2,0,2.1|
2,1,8.7|
2,3,8.2|
2,4,6.1|
3,0,0.67|
3,1,2.4|
3,2,7.7|
3,4,5.1|
4,0,8.1|
4,1,8.9|
4,2,7.9|
4,3,3.5|
];
constraint_x9_x3=[
0,1,6|
0,2,10|
0,3,9.8|
0,4,6.4|
1,0,6.3|
1,2,7|
1,3,9.1|
1,4,0.95|
2,0,6.2|
2,1,3.2|
2,3,3.8|
2,4,9.5|
3,0,3|
3,1,1.8|
3,2,4.3|
3,4,3.2|
4,0,8|
4,1,4.5|
4,2,4.9|
4,3,9.9|
];
constraint_x9_x5=[
0,1,7.6|
0,2,9.4|
0,3,6|
0,4,7.1|
1,0,9.6|
1,2,8.4|
1,3,1.7|
1,4,5.3|
2,0,4|
2,1,5.3|
2,3,2.2|
2,4,0.11|
3,0,8.2|
3,1,3.1|
3,2,0.51|
3,4,6.1|
4,0,5.5|
4,1,5.7|
4,2,2.2|
4,3,2.5|
];
constraint_x9_x7=[
0,1,1.7|
0,2,1.8|
0,3,6.4|
0,4,10|
1,0,5.4|
1,2,3.2|
1,3,1.1|
1,4,1.8|
2,0,1.6|
2,1,10|
2,3,5.6|
2,4,8.1|
3,0,1.7|
3,1,8.2|
3,2,1.9|
3,4,8.7|
4,0,4.1|
4,1,2.1|
4,2,2|
4,3,0.87|
];
constraint_x9_x8=[
0,1,1.1|
0,2,3.3|
0,3,5.7|
0,4,7.3|
1,0,7.3|
1,2,7.8|
1,3,6.9|
1,4,9.7|
2,0,3.5|
2,1,0.83|
2,3,2.7|
2,4,6|
3,0,9.9|
3,1,9.1|
3,2,6.4|
3,4,4.4|
4,0,5.1|
4,1,1.1|
4,2,1.7|
4,3,3|
];
constraint_x10_x3=[
0,1,1.2|
0,2,9.4|
0,3,7.7|
0,4,3.7|
1,0,0.75|
1,2,3.8|
1,3,5.6|
1,4,0.21|
2,0,7.7|
2,1,0.069|
2,3,0.093|
2,4,6.8|
3,0,0.33|
3,1,6.7|
3,2,0.6|
3,4,1.6|
4,0,6.3|
4,1,3.9|
4,2,2.2|
4,3,6.3|
];
constraint_x10_x4=[
0,1,0.56|
0,2,1.8|
0,3,7.8|
0,4,6.7|
1,0,6.8|
1,2,0.99|
1,3,2.1|
1,4,1.5|
2,0,2.5|
2,1,1.5|
2,3,7.7|
2,4,9.9|
3,0,8.8|
3,1,5.5|
3,2,1.5|
3,4,4.4|
4,0,4.8|
4,1,3|
4,2,4.6|
4,3,9.8|
];
constraint_x10_x5=[
0,1,0.3|
0,2,2.7|
0,3,0.074|
0,4,0.59|
1,0,4.6|
1,2,3.4|
1,3,5.3|
1,4,4.5|
2,0,2.9|
2,1,6.1|
2,3,9|
2,4,5.7|
3,0,5.6|
3,1,3|
3,2,5.3|
3,4,5|
4,0,4.8|
4,1,10|
4,2,0.63|
4,3,9.7|
];
constraint_x10_x6=[
0,1,2.2|
0,2,6.6|
0,3,5.7|
0,4,5.5|
1,0,3.6|
1,2,1.8|
1,3,1.4|
1,4,8.8|
2,0,8.8|
2,1,2.4|
2,3,1.1|
2,4,8.5|
3,0,1.9|
3,1,0.11|
3,2,3.7|
3,4,6.4|
4,0,1.6|
4,1,7.9|
4,2,9.8|
4,3,5.7|
];
constraint_x1_y1=[
0,0,3.6|
0,1,5.4|
0,2,5.3|
0,3,8.2|
0,4,9.1|
1,0,0.31|
1,1,6.7|
1,2,7.3|
1,3,7.9|
1,4,4.2|
2,0,9.4|
2,1,7.4|
2,2,8.9|
2,3,5.8|
2,4,3.4|
3,0,9.9|
3,1,7.7|
3,2,8.2|
3,3,4|
3,4,7.4|
4,0,6.5|
4,1,3.3|
4,2,8.2|
4,3,9.2|
4,4,0.45|
];
constraint_x2_y2=[
0,0,0.42|
0,1,6|
0,2,2.7|
0,3,3.7|
0,4,9.3|
1,0,9.9|
1,1,5.7|
1,2,8.7|
1,3,6|
1,4,5.3|
2,0,4.6|
2,1,5.1|
2,2,2.6|
2,3,5.4|
2,4,4.6|
3,0,0.21|
3,1,4.6|
3,2,8.7|
3,3,8.8|
3,4,1.4|
4,0,8.7|
4,1,0.69|
4,2,2.6|
4,3,8.1|
4,4,2.1|
];
initial_distribution_y1=[0.18,0.27,0.04,0.26,0.25];
initial_distribution_y2=[0.15,0.2,0.47,0.16,0.021];
transition_y1=[
0.39,0.095,0.12,0.0095,0.38|
0.19,0.051,0.2,0.22,0.34|
0.26,0.24,0.16,0.23,0.11|
0.095,0.22,0.28,0.23,0.17|
0.51,0.021,0.24,0.021,0.21|
];
transition_y2=[
0.28,0.01,0.29,0.051,0.37|
0.33,0.14,0.3,0.096,0.13|
0.34,0.023,0.32,0.033,0.28|
0.012,0.31,0.11,0.3,0.26|
0.11,0.023,0.16,0.24,0.48|
];
